NAME : 50_5_01.79747.tour
COMMENT : Cost = 0_79747
COMMENT : Found by LKH [Keld Helsgaun] Thu Sep 14 11:11:20 2017
TYPE : TOUR
DIMENSION : 55
TOUR_SECTION
1
2
3
10
48
9
53
8
7
26
25
49
6
47
52
37
35
36
33
32
23
44
46
45
22
21
34
24
4
54
29
20
31
30
19
16
17
11
13
51
12
55
5
15
14
18
42
40
41
38
50
43
39
28
27
-1
EOF
